AES/1_3_4/ssaes_r1-20_c3_rw1_e4_f0_k1-20_aes_min_box_aes_mc_bidirectional/ExperimentMinisat_r14_k1cnf_2011-10-29-153424/Result
WARNING: for repeatability, setting FPU to use double precision
============================[ Problem Statistics ]=============================
|                                                                             |
|  Number of variables:           820                                         |
|  Number of clauses:            3296                                         |
|  Parse time:                   0.00 s                                       |
|  Eliminated clauses:           0.01 Mb                                      |
|  Simplification time:          0.00 s                                       |
|                                                                             |
=============================[ Search Statistics ]==============================
| Conflicts  |          ORIGINAL         |          LEARNT          | Progress |
|            |    Vars  Clauses Literals |    Limit  Clauses Lit/Cl |          |
================================================================================
|        100 |     560     2552     8528 |      935      100     10 |  9.756 % |
|        250 |     560     2552     8528 |     1029      250     11 |  9.756 % |
|        475 |     560     2552     8528 |     1132      475     11 |  9.756 % |
|        812 |     560     2552     8528 |     1245      812     11 |  9.756 % |
|       1318 |     560     2552     8528 |     1370     1318     12 |  9.756 % |
|       2077 |     560     2552     8528 |     1507     1339     10 |  9.756 % |
===============================================================================
restarts              : 16
conflicts             : 3212           (30595 /sec)
decisions             : 4412           (0.00 % random) (42025 /sec)
propagations          : 461170         (4392765 /sec)
conflict literals     : 38357          (31.42 % deleted)
Memory used           : 8.00 MB
CPU time              : 0.104984 s

SATISFIABLE
